\ENCODING=ISO-8859-1
\Problem name: /home/vanessa/Documentos/tcc-auctions/completo/completo1s.lp

Maximize
 obj: 13.5 P18T70 + 1.6666666 P24T6 + 9 P18T75 + 1.8225001 P6T73
      + 4.0499997 P6T76 + 6.75 P7T44 + 6.75 P11T30 + 1.6666666 P24T5
      + 3.3333333 P11T32 + 3 P2T20 + 1.6666666 P24T3 + 12.15 P3T75 + 9 P18T69
      + 8.1 P13T63 + 3.3333333 P5T24 + 5.4674997 P6T79 + 4.05 P10T70
      + 3.75 P20T24 + 12.15 P3T71 + 9 P11T56T28 + 7.5 P1T3 + 13.5 P1T49
      + 4.05 P24T81 + 3.2805002 P6T83 + 9.841499 P6T84 + 2.25 P3T69 + 5 P17T0
      + 6.75 P13T73 + 6.75 P3T63 + 4.5 P5T35 + 1.5 P20T36 + 8.1 P2T17T27
      + 3 P21T84 + 2.5 P23T25 + 2.25 P24T75 + 4.05 P24T78 + 8.1 P25T46
      + 3.3333333 P22T53 + 1.5 P23T21 + 4.05 P24T77 + 6.075 P23T83
      + 1.6666666 P24T52 + 1.6666666 P11T16 + 3.3333333 P13T38 + 9 P9T85
      + 9 P15T58 + 3.3333333 P10T40 + 12.15 P7T65 + 8.1 P10T42 + 6.75 P13T31
      + 9.841499 P6T11 + 6.75 P3T53 + 2.5 P16T33 + 9 P15T64 + 2.025 P2T84
      + 1.5 P2T83 + 7.2900004 P2T82 + 9 P12T71 + 7.2900004 P20T84 + 4.05 P24T46
      + 1.6666666 P3T0 + 6.075 P20T83 + 10.934999 P20T82 + 2.025 P23T74
      + 3.3333333 P25T13 + 1.125 P14T9 + 6.075 P26T81 + 4.5 P13T49 + 8.1 P5T50
      + 5 P11T24 + 8.1 P21T67T29 + 5 P4T9 + 2.25 P6T21 + P14T3 + 4.5 P10T50
      + 5 P3T44 + 3.2805002 P14T2 + 2.25 P10T6 + 5 P18T68 + 1.6666666 P10T3
      + 1.25 P20T16 + 9 P18T59 + P6T24 + 4.0499997 P19T26 + 1.25 P20T15
      + 4.5 P12T81 + 10.934999 P23T89 + 4.5 P25T22 + 10.934999 P20T10
      + 4.5 P23T60 + 3.6450002 P23T62 + 5 P13T18 + 6.75 P17T60 + 4.5 P5T1T45
      + 12.15 P17T61 + 5 P9T22 + 8.1 P7T86 + 1.25 P2T69 + 5 P13T13 + 4.5 P11T74
      + 4.5 P16T89 + 3 P6T33 + 5 P18T35 + 7.5 P18T25 + 5 P12T51 + 1.5 P20T63
      + 2.25 P24T25 + 2.25 P24T26 + 2.5 P21T35 + 4.5 P20T65 + 5 P3T6
      + 7.2900004 P23T73 + 3 P20T81 + 4.5 P26T61 + 3.375 P19T5 + 3 P19T0
      + 3 P6T40 + 5 P15T5 + 8.1 P11T85 + 5 P8T69 + 2.25 P11T84 + 4.05 P11T87
      + 5 P7T13 + 4.05 P17T78 + 1.125 P6T44 + 3.3333333 P7T7 + 5 P18T46
      + 2.25 P24T39 + 3.6450002 P20T72 + 2.25 P24T38 + 6.075 P20T76 + 9 P18T90
      + 9 P8T70 + 5 P15T18 + 4.05 P2T48 + 12.15 P13T79 + 4.5 P7T20
      + 12.15 P11T52 + 1.35 P14T46 + 7.2900004 P6T57T47 + 3.375 P6T53
      + 1.25 P23T6 + 5.4674997 P19T69 + 2.7 P6T55 + 12.15 P13T84
      + 1.6666666 P17T35 + 3.75 P20T48 + 4.0499997 P6T59 + 2.5 P23T38
      + 3.75 P23T39 + 8.1 P22T66 + 2.025 P20T40 + 4.05 P23T35
      + 3.6450002 P20T43 + 4.05 P24T89 + 3 P23T32 + 2.5 P2T7 + 3.6450002 P2T8
      + 7.2900004 P23T51 + 2.5 P2T3 + 3 P2T5 + 2 P6T0 + 9.841499 P19T73
      + 6.75 P7T31 + 1.35 P6T65 + 3.3333333 P11T63 + 12.15 P4T41 + 4.05 P3T88
      + 2.5 P12T30 + 12.15 P7T34 + 5.4674997 P6T68 + 1.8225001 P14T61
      + 6.75 P4T48 + 5 P18T19 + 1.6666666 P5T19 + 10.934999 P26T37
      + 4.05 P23T48 + 1.6666666 P24T15 + 4.5 P20T55 + 3.75 P26T36 + 4.5 P22T76
      - 1.5 P1T4 - 1.5 P2T4 - 1.5 P3T4 - 1.5 P4T4 - 1.5 P5T4 - 1.5 P6T4
      - 1.5 P7T4 - 1.5 P8T4 - 1.5 P9T4 - 1.5 P10T4 - 1.5 P11T4 - 1.5 P12T4
      - 1.5 P13T4 - 1.5 P14T4 - 1.5 P15T4 - 1.5 P16T4 - 1.5 P17T4 - 1.5 P18T4
      - 1.5 P19T4 - 1.5 P20T4 - 1.5 P21T4 - 1.5 P22T4 - 1.5 P23T4 - 1.5 P24T4
      - 1.5 P25T4 - 1.5 P26T4 - 1.5 P1T12 - 1.5 P2T12 - 1.5 P3T12 - 1.5 P4T12
      - 1.5 P5T12 - 1.5 P6T12 - 1.5 P7T12 - 1.5 P8T12 - 1.5 P9T12 - 1.5 P10T12
      - 1.5 P11T12 - 1.5 P12T12 - 1.5 P13T12 - 1.5 P14T12 - 1.5 P15T12
      - 1.5 P16T12 - 1.5 P17T12 - 1.5 P18T12 - 1.5 P19T12 - 1.5 P20T12
      - 1.5 P21T12 - 1.5 P22T12 - 1.5 P23T12 - 1.5 P24T12 - 1.5 P25T12
      - 1.5 P26T12 - 1.5 P1T14 - 1.5 P2T14 - 1.5 P3T14 - 1.5 P4T14 - 1.5 P5T14
      - 1.5 P6T14 - 1.5 P7T14 - 1.5 P8T14 - 1.5 P9T14 - 1.5 P10T14 - 1.5 P11T14
      - 1.5 P12T14 - 1.5 P13T14 - 1.5 P14T14 - 1.5 P15T14 - 1.5 P16T14
      - 1.5 P17T14 - 1.5 P18T14 - 1.5 P19T14 - 1.5 P20T14 - 1.5 P21T14
      - 1.5 P22T14 - 1.5 P23T14 - 1.5 P24T14 - 1.5 P25T14 - 1.5 P26T14
      - 1.5 P1T23 - 1.5 P2T23 - 1.5 P3T23 - 1.5 P4T23 - 1.5 P5T23 - 1.5 P6T23
      - 1.5 P7T23 - 1.5 P8T23 - 1.5 P9T23 - 1.5 P10T23 - 1.5 P11T23
      - 1.5 P12T23 - 1.5 P13T23 - 1.5 P14T23 - 1.5 P15T23 - 1.5 P16T23
      - 1.5 P17T23 - 1.5 P18T23 - 1.5 P19T23 - 1.5 P20T23 - 1.5 P21T23
      - 1.5 P22T23 - 1.5 P23T23 - 1.5 P24T23 - 1.5 P25T23 - 1.5 P26T23
      - 1.5 P1T54 - 1.5 P2T54 - 1.5 P3T54 - 1.5 P4T54 - 1.5 P5T54 - 1.5 P6T54
      - 1.5 P7T54 - 1.5 P8T54 - 1.5 P9T54 - 1.5 P10T54 - 1.5 P11T54
      - 1.5 P12T54 - 1.5 P13T54 - 1.5 P14T54 - 1.5 P15T54 - 1.5 P16T54
      - 1.5 P17T54 - 1.5 P18T54 - 1.5 P19T54 - 1.5 P20T54 - 1.5 P21T54
      - 1.5 P22T54 - 1.5 P23T54 - 1.5 P24T54 - 1.5 P25T54 - 1.5 P26T54
      - 1.5 P1T80 - 1.5 P2T80 - 1.5 P3T80 - 1.5 P4T80 - 1.5 P5T80 - 1.5 P6T80
      - 1.5 P7T80 - 1.5 P8T80 - 1.5 P9T80 - 1.5 P10T80 - 1.5 P11T80
      - 1.5 P12T80 - 1.5 P13T80 - 1.5 P14T80 - 1.5 P15T80 - 1.5 P16T80
      - 1.5 P17T80 - 1.5 P18T80 - 1.5 P19T80 - 1.5 P20T80 - 1.5 P21T80
      - 1.5 P22T80 - 1.5 P23T80 - 1.5 P24T80 - 1.5 P25T80 - 1.5 P26T80;
Subject To
 c1:   P17T0 + P3T0 + P19T0 + P6T0  = 1
 c2:   P5T1T45  = 1
 c3:   P14T2  = 1
 c4:   P24T3 + P1T3 + P14T3 + P10T3 + P2T3  = 1
 c5:   P24T5 + P19T5 + P15T5 + P2T5  = 1
 c6:   P24T6 + P10T6 + P3T6 + P23T6  = 1
 c7:   P7T7 + P2T7  = 1
 c8:   P2T8  = 1
 c9:   P14T9 + P4T9  = 1
 c10:  P20T10  = 1
 c11:  P6T11  = 1
 c12:  P25T13 + P13T13 + P7T13  = 1
 c13:  P20T15 + P24T15  = 1
 c14:  P11T16 + P20T16  = 1
 c15:  P2T17T27  = 1
 c16:  P13T18 + P15T18  = 1
 c17:  P18T19 + P5T19  = 1
 c18:  P2T20 + P7T20  = 1
 c19:  P23T21 + P6T21  = 1
 c20:  P25T22 + P9T22  = 1
 c21:  P5T24 + P20T24 + P11T24 + P6T24  = 1
 c22:  P23T25 + P18T25 + P24T25  = 1
 c23:  P19T26 + P24T26  = 1
 c24:  P2T17T27  = 1
 c25:  P11T56T28  = 1
 c26:  P21T67T29  = 1
 c27:  P11T30 + P12T30  = 1
 c28:  P13T31 + P7T31  = 1
 c29:  P11T32 + P23T32  = 1
 c30:  P16T33 + P6T33  = 1
 c31:  P7T34  = 1
 c32:  P5T35 + P18T35 + P21T35 + P17T35 + P23T35  = 1
 c33:  P20T36 + P26T36  = 1
 c34:  P26T37  = 1
 c35:  P13T38 + P24T38 + P23T38  = 1
 c36:  P24T39 + P23T39  = 1
 c37:  P10T40 + P6T40 + P20T40  = 1
 c38:  P4T41  = 1
 c39:  P10T42  = 1
 c40:  P20T43  = 1
 c41:  P7T44 + P3T44 + P6T44  = 1
 c42:  P5T1T45  = 1
 c43:  P25T46 + P24T46 + P18T46 + P14T46  = 1
 c44:  P6T57T47  = 1
 c45:  P2T48 + P20T48 + P4T48 + P23T48  = 1
 c46:  P1T49 + P13T49  = 1
 c47:  P5T50 + P10T50  = 1
 c48:  P12T51 + P23T51  = 1
 c49:  P24T52 + P11T52  = 1
 c50:  P22T53 + P3T53 + P6T53  = 1
 c51:  P6T55 + P20T55  = 1
 c52:  P11T56T28  = 1
 c53:  P6T57T47  = 1
 c54:  P15T58  = 1
 c55:  P18T59 + P6T59  = 1
 c56:  P23T60 + P17T60  = 1
 c57:  P17T61 + P26T61 + P14T61  = 1
 c58:  P23T62  = 1
 c59:  P13T63 + P3T63 + P20T63 + P11T63  = 1
 c60:  P15T64  = 1
 c61:  P7T65 + P20T65 + P6T65  = 1
 c62:  P22T66  = 1
 c63:  P21T67T29  = 1
 c64:  P18T68 + P6T68  = 1
 c65:  P18T69 + P3T69 + P2T69 + P8T69 + P19T69  = 1
 c66:  P18T70 + P10T70 + P8T70  = 1
 c67:  P3T71 + P12T71  = 1
 c68:  P20T72  = 1
 c69:  P6T73 + P13T73 + P23T73 + P19T73  = 1
 c70:  P23T74 + P11T74  = 1
 c71:  P18T75 + P3T75 + P24T75  = 1
 c72:  P6T76 + P20T76 + P22T76  = 1
 c73:  P24T77  = 1
 c74:  P24T78 + P17T78  = 1
 c75:  P6T79 + P13T79  = 1
 c76:  P24T81 + P26T81 + P12T81 + P20T81  = 1
 c77:  P2T82 + P20T82  = 1
 c78:  P6T83 + P23T83 + P2T83 + P20T83  = 1
 c79:  P6T84 + P21T84 + P2T84 + P20T84 + P11T84 + P13T84  = 1
 c80:  P9T85 + P11T85  = 1
 c81:  P7T86  = 1
 c82:  P11T87  = 1
 c83:  P3T88  = 1
 c84:  P23T89 + P16T89 + P24T89  = 1
 c85:  P18T90  = 1
 c86:  P1T4 + P2T4 + P3T4 + P4T4 + P5T4 + P6T4 + P7T4 + P8T4 + P9T4 + P10T4
       + P11T4 + P12T4 + P13T4 + P14T4 + P15T4 + P16T4 + P17T4 + P18T4 + P19T4
       + P20T4 + P21T4 + P22T4 + P23T4 + P24T4 + P25T4 + P26T4  = 1
 c87:  P1T12 + P2T12 + P3T12 + P4T12 + P5T12 + P6T12 + P7T12 + P8T12 + P9T12
       + P10T12 + P11T12 + P12T12 + P13T12 + P14T12 + P15T12 + P16T12 + P17T12
       + P18T12 + P19T12 + P20T12 + P21T12 + P22T12 + P23T12 + P24T12 + P25T12
       + P26T12  = 1
 c88:  P1T14 + P2T14 + P3T14 + P4T14 + P5T14 + P6T14 + P7T14 + P8T14 + P9T14
       + P10T14 + P11T14 + P12T14 + P13T14 + P14T14 + P15T14 + P16T14 + P17T14
       + P18T14 + P19T14 + P20T14 + P21T14 + P22T14 + P23T14 + P24T14 + P25T14
       + P26T14  = 1
 c89:  P1T23 + P2T23 + P3T23 + P4T23 + P5T23 + P6T23 + P7T23 + P8T23 + P9T23
       + P10T23 + P11T23 + P12T23 + P13T23 + P14T23 + P15T23 + P16T23 + P17T23
       + P18T23 + P19T23 + P20T23 + P21T23 + P22T23 + P23T23 + P24T23 + P25T23
       + P26T23  = 1
 c90:  P1T54 + P2T54 + P3T54 + P4T54 + P5T54 + P6T54 + P7T54 + P8T54 + P9T54
       + P10T54 + P11T54 + P12T54 + P13T54 + P14T54 + P15T54 + P16T54 + P17T54
       + P18T54 + P19T54 + P20T54 + P21T54 + P22T54 + P23T54 + P24T54 + P25T54
       + P26T54  = 1
 c91:  P1T80 + P2T80 + P3T80 + P4T80 + P5T80 + P6T80 + P7T80 + P8T80 + P9T80
       + P10T80 + P11T80 + P12T80 + P13T80 + P14T80 + P15T80 + P16T80 + P17T80
       + P18T80 + P19T80 + P20T80 + P21T80 + P22T80 + P23T80 + P24T80 + P25T80
       + P26T80  = 1
 c92:  P1T3 + P1T49 + P1T4 + P1T12 + P1T14 + P1T23 + P1T54 + P1T80 >= 1
 c93:  P2T20 + P2T17T27 + P2T84 + P2T83 + P2T82 + P2T69 + P2T48 + P2T7 + P2T8
       + P2T3 + P2T5 + P2T4 + P2T12 + P2T14 + P2T23 + P2T54 + P2T80 >= 1
 c94:  P3T75 + P3T71 + P3T69 + P3T63 + P3T53 + P3T0 + P3T44 + P3T6 + P3T88
       + P3T4 + P3T12 + P3T14 + P3T23 + P3T54 + P3T80 >= 1
 c95:  P4T9 + P4T41 + P4T48 + P4T4 + P4T12 + P4T14 + P4T23 + P4T54 + P4T80 >= 1
 c96:  P5T24 + P5T35 + P5T50 + P5T1T45 + P5T19 + P5T4 + P5T12 + P5T14 + P5T23
       + P5T54 + P5T80 >= 1
 c97:  P6T73 + P6T76 + P6T79 + P6T83 + P6T84 + P6T11 + P6T21 + P6T24 + P6T33
       + P6T40 + P6T44 + P6T57T47 + P6T53 + P6T55 + P6T59 + P6T0 + P6T65
       + P6T68 + P6T4 + P6T12 + P6T14 + P6T23 + P6T54 + P6T80 >= 1
 c98:  P7T44 + P7T65 + P7T86 + P7T13 + P7T7 + P7T20 + P7T31 + P7T34 + P7T4
       + P7T12 + P7T14 + P7T23 + P7T54 + P7T80 >= 1
 c99:  P8T69 + P8T70 + P8T4 + P8T12 + P8T14 + P8T23 + P8T54 + P8T80 >= 1
 c100: P9T85 + P9T22 + P9T4 + P9T12 + P9T14 + P9T23 + P9T54 + P9T80 >= 1
 c101: P10T70 + P10T40 + P10T42 + P10T50 + P10T6 + P10T3 + P10T4 + P10T12
       + P10T14 + P10T23 + P10T54 + P10T80 >= 1
 c102: P11T30 + P11T32 + P11T56T28 + P11T16 + P11T24 + P11T74 + P11T85 + P11T84
       + P11T87 + P11T52 + P11T63 + P11T4 + P11T12 + P11T14 + P11T23 + P11T54
       + P11T80 >= 1
 c103: P12T71 + P12T81 + P12T51 + P12T30 + P12T4 + P12T12 + P12T14 + P12T23
       + P12T54 + P12T80 >= 1
 c104: P13T63 + P13T73 + P13T38 + P13T31 + P13T49 + P13T18 + P13T13 + P13T79
       + P13T84 + P13T4 + P13T12 + P13T14 + P13T23 + P13T54 + P13T80 >= 1
 c105: P14T9 + P14T3 + P14T2 + P14T46 + P14T61 + P14T4 + P14T12 + P14T14
       + P14T23 + P14T54 + P14T80 >= 1
 c106: P15T58 + P15T64 + P15T5 + P15T18 + P15T4 + P15T12 + P15T14 + P15T23
       + P15T54 + P15T80 >= 1
 c107: P16T33 + P16T89 + P16T4 + P16T12 + P16T14 + P16T23 + P16T54 + P16T80
       >= 1
 c108: P17T0 + P17T60 + P17T61 + P17T78 + P17T35 + P17T4 + P17T12 + P17T14
       + P17T23 + P17T54 + P17T80 >= 1
 c109: P18T70 + P18T75 + P18T69 + P18T68 + P18T59 + P18T35 + P18T25 + P18T46
       + P18T90 + P18T19 + P18T4 + P18T12 + P18T14 + P18T23 + P18T54 + P18T80
       >= 1
 c110: P19T26 + P19T5 + P19T0 + P19T69 + P19T73 + P19T4 + P19T12 + P19T14
       + P19T23 + P19T54 + P19T80 >= 1
 c111: P20T24 + P20T36 + P20T84 + P20T83 + P20T82 + P20T16 + P20T15 + P20T10
       + P20T63 + P20T65 + P20T81 + P20T72 + P20T76 + P20T48 + P20T40 + P20T43
       + P20T55 + P20T4 + P20T12 + P20T14 + P20T23 + P20T54 + P20T80 >= 1
 c112: P21T84 + P21T67T29 + P21T35 + P21T4 + P21T12 + P21T14 + P21T23 + P21T54
       + P21T80 >= 1
 c113: P22T53 + P22T66 + P22T76 + P22T4 + P22T12 + P22T14 + P22T23 + P22T54
       + P22T80 >= 1
 c114: P23T25 + P23T21 + P23T83 + P23T74 + P23T89 + P23T60 + P23T62 + P23T73
       + P23T6 + P23T38 + P23T39 + P23T35 + P23T32 + P23T51 + P23T48 + P23T4
       + P23T12 + P23T14 + P23T23 + P23T54 + P23T80 >= 1
 c115: P24T6 + P24T5 + P24T3 + P24T81 + P24T75 + P24T78 + P24T77 + P24T52
       + P24T46 + P24T25 + P24T26 + P24T39 + P24T38 + P24T89 + P24T15 + P24T4
       + P24T12 + P24T14 + P24T23 + P24T54 + P24T80 >= 1
 c116: P25T46 + P25T13 + P25T22 + P25T4 + P25T12 + P25T14 + P25T23 + P25T54
       + P25T80 >= 1
 c117: P26T81 + P26T61 + P26T37 + P26T36 + P26T4 + P26T12 + P26T14 + P26T23
       + P26T54 + P26T80 >= 1
 c118: 4 P1T3 + 4 P1T49 + 4 P1T4 + 6 P1T12 + 4 P1T14 + 6 P1T23 + 4 P1T54
       + 4 P1T80 >= 8
 c119: 4 P2T20 + 8 P2T17T27 + 4 P2T84 + 4 P2T83 + 4 P2T82 + 3 P2T69 + 6 P2T48
       + 4 P2T7 + 4 P2T8 + 4 P2T3 + 4 P2T5 + 4 P2T4 + 6 P2T12 + 4 P2T14
       + 6 P2T23 + 4 P2T54 + 4 P2T80 >= 8
 c120: 3 P3T75 + 3 P3T71 + 3 P3T69 + 4 P3T63 + 4 P3T53 + 2 P3T0 + 4 P3T44
       + 4 P3T6 + 3 P3T88 + 4 P3T4 + 6 P3T12 + 4 P3T14 + 6 P3T23 + 4 P3T54
       + 4 P3T80 >= 8
 c121: 4 P4T9 + 6 P4T41 + 6 P4T48 + 4 P4T4 + 6 P4T12 + 4 P4T14 + 6 P4T23
       + 4 P4T54 + 4 P4T80 >= 8
 c122: 4 P5T24 + 3 P5T35 + 4 P5T50 + 7 P5T1T45 + 4 P5T19 + 4 P5T4 + 6 P5T12
       + 4 P5T14 + 6 P5T23 + 4 P5T54 + 4 P5T80 >= 8
 c123: 3 P6T73 + 4 P6T76 + 4 P6T79 + 4 P6T83 + 4 P6T84 + 6 P6T11 + 4 P6T21
       + 4 P6T24 + 3 P6T33 + 6 P6T40 + 4 P6T44 + 10 P6T57T47 + 4 P6T53
       + 4 P6T55 + 4 P6T59 + 2 P6T0 + 4 P6T65 + 3 P6T68 + 4 P6T4 + 6 P6T12
       + 4 P6T14 + 6 P6T23 + 4 P6T54 + 4 P6T80 >= 8
 c124: 4 P7T44 + 4 P7T65 + 4 P7T86 + 4 P7T13 + 4 P7T7 + 4 P7T20 + 3 P7T31
       + 3 P7T34 + 4 P7T4 + 6 P7T12 + 4 P7T14 + 6 P7T23 + 4 P7T54 + 4 P7T80
       >= 8
 c125: 3 P8T69 + 3 P8T70 + 4 P8T4 + 6 P8T12 + 4 P8T14 + 6 P8T23 + 4 P8T54
       + 4 P8T80 >= 8
 c126: 4 P9T85 + 2 P9T22 + 4 P9T4 + 6 P9T12 + 4 P9T14 + 6 P9T23 + 4 P9T54
       + 4 P9T80 >= 8
 c127: 3 P10T70 + 6 P10T40 + 4 P10T42 + 4 P10T50 + 4 P10T6 + 4 P10T3 + 4 P10T4
       + 6 P10T12 + 4 P10T14 + 6 P10T23 + 4 P10T54 + 4 P10T80 >= 8
 c128: 3 P11T30 + 3 P11T32 + 10 P11T56T28 + 4 P11T16 + 4 P11T24 + 3 P11T74
       + 4 P11T85 + 4 P11T84 + 4 P11T87 + 4 P11T52 + 4 P11T63 + 4 P11T4
       + 6 P11T12 + 4 P11T14 + 6 P11T23 + 4 P11T54 + 4 P11T80 >= 8
 c129: 3 P12T71 + 4 P12T81 + 4 P12T51 + 3 P12T30 + 4 P12T4 + 6 P12T12
       + 4 P12T14 + 6 P12T23 + 4 P12T54 + 4 P12T80 >= 8
 c130: 4 P13T63 + 3 P13T73 + 6 P13T38 + 3 P13T31 + 4 P13T49 + 4 P13T18
       + 4 P13T13 + 4 P13T79 + 4 P13T84 + 4 P13T4 + 6 P13T12 + 4 P13T14
       + 6 P13T23 + 4 P13T54 + 4 P13T80 >= 8
 c131: 4 P14T9 + 4 P14T3 + 3 P14T2 + 6 P14T46 + 4 P14T61 + 4 P14T4 + 6 P14T12
       + 4 P14T14 + 6 P14T23 + 4 P14T54 + 4 P14T80 >= 8
 c132: 4 P15T58 + 4 P15T64 + 4 P15T5 + 4 P15T18 + 4 P15T4 + 6 P15T12 + 4 P15T14
       + 6 P15T23 + 4 P15T54 + 4 P15T80 >= 8
 c133: 3 P16T33 + 3 P16T89 + 4 P16T4 + 6 P16T12 + 4 P16T14 + 6 P16T23
       + 4 P16T54 + 4 P16T80 >= 8
 c134: 2 P17T0 + 4 P17T60 + 4 P17T61 + 4 P17T78 + 3 P17T35 + 4 P17T4 + 6 P17T12
       + 4 P17T14 + 6 P17T23 + 4 P17T54 + 4 P17T80 >= 8
 c135: 3 P18T70 + 3 P18T75 + 3 P18T69 + 3 P18T68 + 4 P18T59 + 3 P18T35
       + 4 P18T25 + 6 P18T46 + 3 P18T90 + 4 P18T19 + 4 P18T4 + 6 P18T12
       + 4 P18T14 + 6 P18T23 + 4 P18T54 + 4 P18T80 >= 8
 c136: 4 P19T26 + 4 P19T5 + 2 P19T0 + 3 P19T69 + 3 P19T73 + 4 P19T4 + 6 P19T12
       + 4 P19T14 + 6 P19T23 + 4 P19T54 + 4 P19T80 >= 8
 c137: 4 P20T24 + 3 P20T36 + 4 P20T84 + 4 P20T83 + 4 P20T82 + 4 P20T16
       + 4 P20T15 + 4 P20T10 + 4 P20T63 + 4 P20T65 + 4 P20T81 + 3 P20T72
       + 4 P20T76 + 6 P20T48 + 6 P20T40 + 2 P20T43 + 4 P20T55 + 4 P20T4
       + 6 P20T12 + 4 P20T14 + 6 P20T23 + 4 P20T54 + 4 P20T80 >= 8
 c138: 4 P21T84 + 3 P21T67T29 + 3 P21T35 + 4 P21T4 + 6 P21T12 + 4 P21T14
       + 6 P21T23 + 4 P21T54 + 4 P21T80 >= 8
 c139: 4 P22T53 + P22T66 + 4 P22T76 + 4 P22T4 + 6 P22T12 + 4 P22T14 + 6 P22T23
       + 4 P22T54 + 4 P22T80 >= 8
 c140: 4 P23T25 + 4 P23T21 + 4 P23T83 + 3 P23T74 + 3 P23T89 + 4 P23T60
       + 4 P23T62 + 3 P23T73 + 4 P23T6 + 6 P23T38 + 6 P23T39 + 3 P23T35
       + 3 P23T32 + 4 P23T51 + 6 P23T48 + 4 P23T4 + 6 P23T12 + 4 P23T14
       + 6 P23T23 + 4 P23T54 + 4 P23T80 >= 8
 c141: 4 P24T6 + 4 P24T5 + 4 P24T3 + 4 P24T81 + 3 P24T75 + 4 P24T78 + 4 P24T77
       + 4 P24T52 + 6 P24T46 + 4 P24T25 + 4 P24T26 + 6 P24T39 + 6 P24T38
       + 3 P24T89 + 4 P24T15 + 4 P24T4 + 6 P24T12 + 4 P24T14 + 6 P24T23
       + 4 P24T54 + 4 P24T80 >= 8
 c142: 6 P25T46 + 4 P25T13 + 2 P25T22 + 4 P25T4 + 6 P25T12 + 4 P25T14
       + 6 P25T23 + 4 P25T54 + 4 P25T80 >= 16
 c143: 4 P26T81 + 4 P26T61 + 3 P26T37 + 3 P26T36 + 4 P26T4 + 6 P26T12
       + 4 P26T14 + 6 P26T23 + 4 P26T54 + 4 P26T80 >= 16
 c144: 4 P1T3 + 4 P1T49 + 4 P1T4 + 6 P1T12 + 4 P1T14 + 6 P1T23 + 4 P1T54
       + 4 P1T80 <= 20
 c145: 4 P2T20 + 8 P2T17T27 + 4 P2T84 + 4 P2T83 + 4 P2T82 + 3 P2T69 + 6 P2T48
       + 4 P2T7 + 4 P2T8 + 4 P2T3 + 4 P2T5 + 4 P2T4 + 6 P2T12 + 4 P2T14
       + 6 P2T23 + 4 P2T54 + 4 P2T80 <= 20
 c146: 3 P3T75 + 3 P3T71 + 3 P3T69 + 4 P3T63 + 4 P3T53 + 2 P3T0 + 4 P3T44
       + 4 P3T6 + 3 P3T88 + 4 P3T4 + 6 P3T12 + 4 P3T14 + 6 P3T23 + 4 P3T54
       + 4 P3T80 <= 20
 c147: 4 P4T9 + 6 P4T41 + 6 P4T48 + 4 P4T4 + 6 P4T12 + 4 P4T14 + 6 P4T23
       + 4 P4T54 + 4 P4T80 <= 20
 c148: 4 P5T24 + 3 P5T35 + 4 P5T50 + 7 P5T1T45 + 4 P5T19 + 4 P5T4 + 6 P5T12
       + 4 P5T14 + 6 P5T23 + 4 P5T54 + 4 P5T80 <= 20
 c149: 3 P6T73 + 4 P6T76 + 4 P6T79 + 4 P6T83 + 4 P6T84 + 6 P6T11 + 4 P6T21
       + 4 P6T24 + 3 P6T33 + 6 P6T40 + 4 P6T44 + 10 P6T57T47 + 4 P6T53
       + 4 P6T55 + 4 P6T59 + 2 P6T0 + 4 P6T65 + 3 P6T68 + 4 P6T4 + 6 P6T12
       + 4 P6T14 + 6 P6T23 + 4 P6T54 + 4 P6T80 <= 20
 c150: 4 P7T44 + 4 P7T65 + 4 P7T86 + 4 P7T13 + 4 P7T7 + 4 P7T20 + 3 P7T31
       + 3 P7T34 + 4 P7T4 + 6 P7T12 + 4 P7T14 + 6 P7T23 + 4 P7T54 + 4 P7T80
       <= 20
 c151: 3 P8T69 + 3 P8T70 + 4 P8T4 + 6 P8T12 + 4 P8T14 + 6 P8T23 + 4 P8T54
       + 4 P8T80 <= 20
 c152: 4 P9T85 + 2 P9T22 + 4 P9T4 + 6 P9T12 + 4 P9T14 + 6 P9T23 + 4 P9T54
       + 4 P9T80 <= 20
 c153: 3 P10T70 + 6 P10T40 + 4 P10T42 + 4 P10T50 + 4 P10T6 + 4 P10T3 + 4 P10T4
       + 6 P10T12 + 4 P10T14 + 6 P10T23 + 4 P10T54 + 4 P10T80 <= 20
 c154: 3 P11T30 + 3 P11T32 + 10 P11T56T28 + 4 P11T16 + 4 P11T24 + 3 P11T74
       + 4 P11T85 + 4 P11T84 + 4 P11T87 + 4 P11T52 + 4 P11T63 + 4 P11T4
       + 6 P11T12 + 4 P11T14 + 6 P11T23 + 4 P11T54 + 4 P11T80 <= 20
 c155: 3 P12T71 + 4 P12T81 + 4 P12T51 + 3 P12T30 + 4 P12T4 + 6 P12T12
       + 4 P12T14 + 6 P12T23 + 4 P12T54 + 4 P12T80 <= 20
 c156: 4 P13T63 + 3 P13T73 + 6 P13T38 + 3 P13T31 + 4 P13T49 + 4 P13T18
       + 4 P13T13 + 4 P13T79 + 4 P13T84 + 4 P13T4 + 6 P13T12 + 4 P13T14
       + 6 P13T23 + 4 P13T54 + 4 P13T80 <= 20
 c157: 4 P14T9 + 4 P14T3 + 3 P14T2 + 6 P14T46 + 4 P14T61 + 4 P14T4 + 6 P14T12
       + 4 P14T14 + 6 P14T23 + 4 P14T54 + 4 P14T80 <= 20
 c158: 4 P15T58 + 4 P15T64 + 4 P15T5 + 4 P15T18 + 4 P15T4 + 6 P15T12 + 4 P15T14
       + 6 P15T23 + 4 P15T54 + 4 P15T80 <= 20
 c159: 3 P16T33 + 3 P16T89 + 4 P16T4 + 6 P16T12 + 4 P16T14 + 6 P16T23
       + 4 P16T54 + 4 P16T80 <= 20
 c160: 2 P17T0 + 4 P17T60 + 4 P17T61 + 4 P17T78 + 3 P17T35 + 4 P17T4 + 6 P17T12
       + 4 P17T14 + 6 P17T23 + 4 P17T54 + 4 P17T80 <= 20
 c161: 3 P18T70 + 3 P18T75 + 3 P18T69 + 3 P18T68 + 4 P18T59 + 3 P18T35
       + 4 P18T25 + 6 P18T46 + 3 P18T90 + 4 P18T19 + 4 P18T4 + 6 P18T12
       + 4 P18T14 + 6 P18T23 + 4 P18T54 + 4 P18T80 <= 20
 c162: 4 P19T26 + 4 P19T5 + 2 P19T0 + 3 P19T69 + 3 P19T73 + 4 P19T4 + 6 P19T12
       + 4 P19T14 + 6 P19T23 + 4 P19T54 + 4 P19T80 <= 20
 c163: 4 P20T24 + 3 P20T36 + 4 P20T84 + 4 P20T83 + 4 P20T82 + 4 P20T16
       + 4 P20T15 + 4 P20T10 + 4 P20T63 + 4 P20T65 + 4 P20T81 + 3 P20T72
       + 4 P20T76 + 6 P20T48 + 6 P20T40 + 2 P20T43 + 4 P20T55 + 4 P20T4
       + 6 P20T12 + 4 P20T14 + 6 P20T23 + 4 P20T54 + 4 P20T80 <= 20
 c164: 4 P21T84 + 3 P21T67T29 + 3 P21T35 + 4 P21T4 + 6 P21T12 + 4 P21T14
       + 6 P21T23 + 4 P21T54 + 4 P21T80 <= 20
 c165: 4 P22T53 + P22T66 + 4 P22T76 + 4 P22T4 + 6 P22T12 + 4 P22T14 + 6 P22T23
       + 4 P22T54 + 4 P22T80 <= 20
 c166: 4 P23T25 + 4 P23T21 + 4 P23T83 + 3 P23T74 + 3 P23T89 + 4 P23T60
       + 4 P23T62 + 3 P23T73 + 4 P23T6 + 6 P23T38 + 6 P23T39 + 3 P23T35
       + 3 P23T32 + 4 P23T51 + 6 P23T48 + 4 P23T4 + 6 P23T12 + 4 P23T14
       + 6 P23T23 + 4 P23T54 + 4 P23T80 <= 20
 c167: 4 P24T6 + 4 P24T5 + 4 P24T3 + 4 P24T81 + 3 P24T75 + 4 P24T78 + 4 P24T77
       + 4 P24T52 + 6 P24T46 + 4 P24T25 + 4 P24T26 + 6 P24T39 + 6 P24T38
       + 3 P24T89 + 4 P24T15 + 4 P24T4 + 6 P24T12 + 4 P24T14 + 6 P24T23
       + 4 P24T54 + 4 P24T80 <= 20
 c168: 6 P25T46 + 4 P25T13 + 2 P25T22 + 4 P25T4 + 6 P25T12 + 4 P25T14
       + 6 P25T23 + 4 P25T54 + 4 P25T80 <= 20
 c169: 4 P26T81 + 4 P26T61 + 3 P26T37 + 3 P26T36 + 4 P26T4 + 6 P26T12
       + 4 P26T14 + 6 P26T23 + 4 P26T54 + 4 P26T80 <= 20
Bounds
 0 <= P18T70 <= 1
 0 <= P24T6 <= 1
 0 <= P18T75 <= 1
 0 <= P6T73 <= 1
 0 <= P6T76 <= 1
 0 <= P7T44 <= 1
 0 <= P11T30 <= 1
 0 <= P24T5 <= 1
 0 <= P11T32 <= 1
 0 <= P2T20 <= 1
 0 <= P24T3 <= 1
 0 <= P3T75 <= 1
 0 <= P18T69 <= 1
 0 <= P13T63 <= 1
 0 <= P5T24 <= 1
 0 <= P6T79 <= 1
 0 <= P10T70 <= 1
 0 <= P20T24 <= 1
 0 <= P3T71 <= 1
 0 <= P11T56T28 <= 1
 0 <= P1T3 <= 1
 0 <= P1T49 <= 1
 0 <= P24T81 <= 1
 0 <= P6T83 <= 1
 0 <= P6T84 <= 1
 0 <= P3T69 <= 1
 0 <= P17T0 <= 1
 0 <= P13T73 <= 1
 0 <= P3T63 <= 1
 0 <= P5T35 <= 1
 0 <= P20T36 <= 1
 0 <= P2T17T27 <= 1
 0 <= P21T84 <= 1
 0 <= P23T25 <= 1
 0 <= P24T75 <= 1
 0 <= P24T78 <= 1
 0 <= P25T46 <= 1
 0 <= P22T53 <= 1
 0 <= P23T21 <= 1
 0 <= P24T77 <= 1
 0 <= P23T83 <= 1
 0 <= P24T52 <= 1
 0 <= P11T16 <= 1
 0 <= P13T38 <= 1
 0 <= P9T85 <= 1
 0 <= P15T58 <= 1
 0 <= P10T40 <= 1
 0 <= P7T65 <= 1
 0 <= P10T42 <= 1
 0 <= P13T31 <= 1
 0 <= P6T11 <= 1
 0 <= P3T53 <= 1
 0 <= P16T33 <= 1
 0 <= P15T64 <= 1
 0 <= P2T84 <= 1
 0 <= P2T83 <= 1
 0 <= P2T82 <= 1
 0 <= P12T71 <= 1
 0 <= P20T84 <= 1
 0 <= P24T46 <= 1
 0 <= P3T0 <= 1
 0 <= P20T83 <= 1
 0 <= P20T82 <= 1
 0 <= P23T74 <= 1
 0 <= P25T13 <= 1
 0 <= P14T9 <= 1
 0 <= P26T81 <= 1
 0 <= P13T49 <= 1
 0 <= P5T50 <= 1
 0 <= P11T24 <= 1
 0 <= P21T67T29 <= 1
 0 <= P4T9 <= 1
 0 <= P6T21 <= 1
 0 <= P14T3 <= 1
 0 <= P10T50 <= 1
 0 <= P3T44 <= 1
 0 <= P14T2 <= 1
 0 <= P10T6 <= 1
 0 <= P18T68 <= 1
 0 <= P10T3 <= 1
 0 <= P20T16 <= 1
 0 <= P18T59 <= 1
 0 <= P6T24 <= 1
 0 <= P19T26 <= 1
 0 <= P20T15 <= 1
 0 <= P12T81 <= 1
 0 <= P23T89 <= 1
 0 <= P25T22 <= 1
 0 <= P20T10 <= 1
 0 <= P23T60 <= 1
 0 <= P23T62 <= 1
 0 <= P13T18 <= 1
 0 <= P17T60 <= 1
 0 <= P5T1T45 <= 1
 0 <= P17T61 <= 1
 0 <= P9T22 <= 1
 0 <= P7T86 <= 1
 0 <= P2T69 <= 1
 0 <= P13T13 <= 1
 0 <= P11T74 <= 1
 0 <= P16T89 <= 1
 0 <= P6T33 <= 1
 0 <= P18T35 <= 1
 0 <= P18T25 <= 1
 0 <= P12T51 <= 1
 0 <= P20T63 <= 1
 0 <= P24T25 <= 1
 0 <= P24T26 <= 1
 0 <= P21T35 <= 1
 0 <= P20T65 <= 1
 0 <= P3T6 <= 1
 0 <= P23T73 <= 1
 0 <= P20T81 <= 1
 0 <= P26T61 <= 1
 0 <= P19T5 <= 1
 0 <= P19T0 <= 1
 0 <= P6T40 <= 1
 0 <= P15T5 <= 1
 0 <= P11T85 <= 1
 0 <= P8T69 <= 1
 0 <= P11T84 <= 1
 0 <= P11T87 <= 1
 0 <= P7T13 <= 1
 0 <= P17T78 <= 1
 0 <= P6T44 <= 1
 0 <= P7T7 <= 1
 0 <= P18T46 <= 1
 0 <= P24T39 <= 1
 0 <= P20T72 <= 1
 0 <= P24T38 <= 1
 0 <= P20T76 <= 1
 0 <= P18T90 <= 1
 0 <= P8T70 <= 1
 0 <= P15T18 <= 1
 0 <= P2T48 <= 1
 0 <= P13T79 <= 1
 0 <= P7T20 <= 1
 0 <= P11T52 <= 1
 0 <= P14T46 <= 1
 0 <= P6T57T47 <= 1
 0 <= P6T53 <= 1
 0 <= P23T6 <= 1
 0 <= P19T69 <= 1
 0 <= P6T55 <= 1
 0 <= P13T84 <= 1
 0 <= P17T35 <= 1
 0 <= P20T48 <= 1
 0 <= P6T59 <= 1
 0 <= P23T38 <= 1
 0 <= P23T39 <= 1
 0 <= P22T66 <= 1
 0 <= P20T40 <= 1
 0 <= P23T35 <= 1
 0 <= P20T43 <= 1
 0 <= P24T89 <= 1
 0 <= P23T32 <= 1
 0 <= P2T7 <= 1
 0 <= P2T8 <= 1
 0 <= P23T51 <= 1
 0 <= P2T3 <= 1
 0 <= P2T5 <= 1
 0 <= P6T0 <= 1
 0 <= P19T73 <= 1
 0 <= P7T31 <= 1
 0 <= P6T65 <= 1
 0 <= P11T63 <= 1
 0 <= P4T41 <= 1
 0 <= P3T88 <= 1
 0 <= P12T30 <= 1
 0 <= P7T34 <= 1
 0 <= P6T68 <= 1
 0 <= P14T61 <= 1
 0 <= P4T48 <= 1
 0 <= P18T19 <= 1
 0 <= P5T19 <= 1
 0 <= P26T37 <= 1
 0 <= P23T48 <= 1
 0 <= P24T15 <= 1
 0 <= P20T55 <= 1
 0 <= P26T36 <= 1
 0 <= P22T76 <= 1
 0 <= P1T4 <= 1
 0 <= P2T4 <= 1
 0 <= P3T4 <= 1
 0 <= P4T4 <= 1
 0 <= P5T4 <= 1
 0 <= P6T4 <= 1
 0 <= P7T4 <= 1
 0 <= P8T4 <= 1
 0 <= P9T4 <= 1
 0 <= P10T4 <= 1
 0 <= P11T4 <= 1
 0 <= P12T4 <= 1
 0 <= P13T4 <= 1
 0 <= P14T4 <= 1
 0 <= P15T4 <= 1
 0 <= P16T4 <= 1
 0 <= P17T4 <= 1
 0 <= P18T4 <= 1
 0 <= P19T4 <= 1
 0 <= P20T4 <= 1
 0 <= P21T4 <= 1
 0 <= P22T4 <= 1
 0 <= P23T4 <= 1
 0 <= P24T4 <= 1
 0 <= P25T4 <= 1
 0 <= P26T4 <= 1
 0 <= P1T12 <= 1
 0 <= P2T12 <= 1
 0 <= P3T12 <= 1
 0 <= P4T12 <= 1
 0 <= P5T12 <= 1
 0 <= P6T12 <= 1
 0 <= P7T12 <= 1
 0 <= P8T12 <= 1
 0 <= P9T12 <= 1
 0 <= P10T12 <= 1
 0 <= P11T12 <= 1
 0 <= P12T12 <= 1
 0 <= P13T12 <= 1
 0 <= P14T12 <= 1
 0 <= P15T12 <= 1
 0 <= P16T12 <= 1
 0 <= P17T12 <= 1
 0 <= P18T12 <= 1
 0 <= P19T12 <= 1
 0 <= P20T12 <= 1
 0 <= P21T12 <= 1
 0 <= P22T12 <= 1
 0 <= P23T12 <= 1
 0 <= P24T12 <= 1
 0 <= P25T12 <= 1
 0 <= P26T12 <= 1
 0 <= P1T14 <= 1
 0 <= P2T14 <= 1
 0 <= P3T14 <= 1
 0 <= P4T14 <= 1
 0 <= P5T14 <= 1
 0 <= P6T14 <= 1
 0 <= P7T14 <= 1
 0 <= P8T14 <= 1
 0 <= P9T14 <= 1
 0 <= P10T14 <= 1
 0 <= P11T14 <= 1
 0 <= P12T14 <= 1
 0 <= P13T14 <= 1
 0 <= P14T14 <= 1
 0 <= P15T14 <= 1
 0 <= P16T14 <= 1
 0 <= P17T14 <= 1
 0 <= P18T14 <= 1
 0 <= P19T14 <= 1
 0 <= P20T14 <= 1
 0 <= P21T14 <= 1
 0 <= P22T14 <= 1
 0 <= P23T14 <= 1
 0 <= P24T14 <= 1
 0 <= P25T14 <= 1
 0 <= P26T14 <= 1
 0 <= P1T23 <= 1
 0 <= P2T23 <= 1
 0 <= P3T23 <= 1
 0 <= P4T23 <= 1
 0 <= P5T23 <= 1
 0 <= P6T23 <= 1
 0 <= P7T23 <= 1
 0 <= P8T23 <= 1
 0 <= P9T23 <= 1
 0 <= P10T23 <= 1
 0 <= P11T23 <= 1
 0 <= P12T23 <= 1
 0 <= P13T23 <= 1
 0 <= P14T23 <= 1
 0 <= P15T23 <= 1
 0 <= P16T23 <= 1
 0 <= P17T23 <= 1
 0 <= P18T23 <= 1
 0 <= P19T23 <= 1
 0 <= P20T23 <= 1
 0 <= P21T23 <= 1
 0 <= P22T23 <= 1
 0 <= P23T23 <= 1
 0 <= P24T23 <= 1
 0 <= P25T23 <= 1
 0 <= P26T23 <= 1
 0 <= P1T54 <= 1
 0 <= P2T54 <= 1
 0 <= P3T54 <= 1
 0 <= P4T54 <= 1
 0 <= P5T54 <= 1
 0 <= P6T54 <= 1
 0 <= P7T54 <= 1
 0 <= P8T54 <= 1
 0 <= P9T54 <= 1
 0 <= P10T54 <= 1
 0 <= P11T54 <= 1
 0 <= P12T54 <= 1
 0 <= P13T54 <= 1
 0 <= P14T54 <= 1
 0 <= P15T54 <= 1
 0 <= P16T54 <= 1
 0 <= P17T54 <= 1
 0 <= P18T54 <= 1
 0 <= P19T54 <= 1
 0 <= P20T54 <= 1
 0 <= P21T54 <= 1
 0 <= P22T54 <= 1
 0 <= P23T54 <= 1
 0 <= P24T54 <= 1
 0 <= P25T54 <= 1
 0 <= P26T54 <= 1
 0 <= P1T80 <= 1
 0 <= P2T80 <= 1
 0 <= P3T80 <= 1
 0 <= P4T80 <= 1
 0 <= P5T80 <= 1
 0 <= P6T80 <= 1
 0 <= P7T80 <= 1
 0 <= P8T80 <= 1
 0 <= P9T80 <= 1
 0 <= P10T80 <= 1
 0 <= P11T80 <= 1
 0 <= P12T80 <= 1
 0 <= P13T80 <= 1
 0 <= P14T80 <= 1
 0 <= P15T80 <= 1
 0 <= P16T80 <= 1
 0 <= P17T80 <= 1
 0 <= P18T80 <= 1
 0 <= P19T80 <= 1
 0 <= P20T80 <= 1
 0 <= P21T80 <= 1
 0 <= P22T80 <= 1
 0 <= P23T80 <= 1
 0 <= P24T80 <= 1
 0 <= P25T80 <= 1
 0 <= P26T80 <= 1
Binaries
 P18T70  P24T6  P18T75  P6T73  P6T76  P7T44  P11T30  P24T5  P11T32  P2T20 
 P24T3  P3T75  P18T69  P13T63  P5T24  P6T79  P10T70  P20T24  P3T71  P11T56T28 
 P1T3  P1T49  P24T81  P6T83  P6T84  P3T69  P17T0  P13T73  P3T63  P5T35  P20T36 
 P2T17T27  P21T84  P23T25  P24T75  P24T78  P25T46  P22T53  P23T21  P24T77 
 P23T83  P24T52  P11T16  P13T38  P9T85  P15T58  P10T40  P7T65  P10T42  P13T31 
 P6T11  P3T53  P16T33  P15T64  P2T84  P2T83  P2T82  P12T71  P20T84  P24T46 
 P3T0  P20T83  P20T82  P23T74  P25T13  P14T9  P26T81  P13T49  P5T50  P11T24 
 P21T67T29  P4T9  P6T21  P14T3  P10T50  P3T44  P14T2  P10T6  P18T68  P10T3 
 P20T16  P18T59  P6T24  P19T26  P20T15  P12T81  P23T89  P25T22  P20T10  P23T60 
 P23T62  P13T18  P17T60  P5T1T45  P17T61  P9T22  P7T86  P2T69  P13T13  P11T74 
 P16T89  P6T33  P18T35  P18T25  P12T51  P20T63  P24T25  P24T26  P21T35  P20T65 
 P3T6  P23T73  P20T81  P26T61  P19T5  P19T0  P6T40  P15T5  P11T85  P8T69 
 P11T84  P11T87  P7T13  P17T78  P6T44  P7T7  P18T46  P24T39  P20T72  P24T38 
 P20T76  P18T90  P8T70  P15T18  P2T48  P13T79  P7T20  P11T52  P14T46  P6T57T47 
 P6T53  P23T6  P19T69  P6T55  P13T84  P17T35  P20T48  P6T59  P23T38  P23T39 
 P22T66  P20T40  P23T35  P20T43  P24T89  P23T32  P2T7  P2T8  P23T51  P2T3 
 P2T5  P6T0  P19T73  P7T31  P6T65  P11T63  P4T41  P3T88  P12T30  P7T34  P6T68 
 P14T61  P4T48  P18T19  P5T19  P26T37  P23T48  P24T15  P20T55  P26T36  P22T76 
 P1T4  P2T4  P3T4  P4T4  P5T4  P6T4  P7T4  P8T4  P9T4  P10T4  P11T4  P12T4 
 P13T4  P14T4  P15T4  P16T4  P17T4  P18T4  P19T4  P20T4  P21T4  P22T4  P23T4 
 P24T4  P25T4  P26T4  P1T12  P2T12  P3T12  P4T12  P5T12  P6T12  P7T12  P8T12 
 P9T12  P10T12  P11T12  P12T12  P13T12  P14T12  P15T12  P16T12  P17T12  P18T12 
 P19T12  P20T12  P21T12  P22T12  P23T12  P24T12  P25T12  P26T12  P1T14  P2T14 
 P3T14  P4T14  P5T14  P6T14  P7T14  P8T14  P9T14  P10T14  P11T14  P12T14 
 P13T14  P14T14  P15T14  P16T14  P17T14  P18T14  P19T14  P20T14  P21T14 
 P22T14  P23T14  P24T14  P25T14  P26T14  P1T23  P2T23  P3T23  P4T23  P5T23 
 P6T23  P7T23  P8T23  P9T23  P10T23  P11T23  P12T23  P13T23  P14T23  P15T23 
 P16T23  P17T23  P18T23  P19T23  P20T23  P21T23  P22T23  P23T23  P24T23 
 P25T23  P26T23  P1T54  P2T54  P3T54  P4T54  P5T54  P6T54  P7T54  P8T54  P9T54 
 P10T54  P11T54  P12T54  P13T54  P14T54  P15T54  P16T54  P17T54  P18T54 
 P19T54  P20T54  P21T54  P22T54  P23T54  P24T54  P25T54  P26T54  P1T80  P2T80 
 P3T80  P4T80  P5T80  P6T80  P7T80  P8T80  P9T80  P10T80  P11T80  P12T80 
 P13T80  P14T80  P15T80  P16T80  P17T80  P18T80  P19T80  P20T80  P21T80 
 P22T80  P23T80  P24T80  P25T80  P26T80 
End
